p cnf 7230 16
1084 -1086 0
1079 -1081 0
-887 -1084 1085 0
-885 -1079 1080 0
1084 -1088 0
-855 -1084 1087 0
1079 -1083 0
-853 -1079 1082 0
-1085 1086 0
-1080 1081 0
-1087 1088 0
855 -1088 0
887 -1086 0
-1082 1083 0
853 -1083 0
885 -1081 0
